certificates/rado_a9_c168_N21.cnf
c Rad2 upper bound instance: x1 + 9*x2 - x3 = 168, interval [1,21]
p cnf 21 94
1 4 19 0
-1 -4 -19 0
1 13 20 0
-1 -13 -20 0
2 5 19 0
-2 -5 -19 0
2 14 20 0
-2 -14 -20 0
3 6 19 0
-3 -6 -19 0
3 15 20 0
-3 -15 -20 0
4 7 19 0
-4 -7 -19 0
4 16 20 0
-4 -16 -20 0
5 8 19 0
-5 -8 -19 0
5 17 20 0
-5 -17 -20 0
6 9 19 0
-6 -9 -19 0
6 18 20 0
-6 -18 -20 0
1 7 18 0
-1 -7 -18 0
7 10 19 0
-7 -10 -19 0
7 19 20 0
-7 -19 -20 0
2 8 18 0
-2 -8 -18 0
8 11 19 0
-8 -11 -19 0
8 20 0
-8 -20 0
3 9 18 0
-3 -9 -18 0
9 12 19 0
-9 -12 -19 0
9 20 21 0
-9 -20 -21 0
4 10 18 0
-4 -10 -18 0
10 13 19 0
-10 -13 -19 0
5 11 18 0
-5 -11 -18 0
11 14 19 0
-11 -14 -19 0
6 12 18 0
-6 -12 -18 0
12 15 19 0
-12 -15 -19 0
7 13 18 0
-7 -13 -18 0
13 16 19 0
-13 -16 -19 0
8 14 18 0
-8 -14 -18 0
14 17 19 0
-14 -17 -19 0
9 15 18 0
-9 -15 -18 0
15 18 19 0
-15 -18 -19 0
1 16 17 0
-1 -16 -17 0
10 16 18 0
-10 -16 -18 0
16 19 0
-16 -19 0
2 17 0
-2 -17 0
11 17 18 0
-11 -17 -18 0
17 19 20 0
-17 -19 -20 0
3 17 18 0
-3 -17 -18 0
12 18 0
-12 -18 0
18 19 21 0
-18 -19 -21 0
4 17 19 0
-4 -17 -19 0
13 18 19 0
-13 -18 -19 0
14 18 20 0
-14 -18 -20 0
6 17 21 0
-6 -17 -21 0
15 18 21 0
-15 -18 -21 0
