certificates/rado_a9_c168_N21.drat
-19 -20 -21 0
-20 -21 0
d -19 -20 -21 0
-17 -21 0
-21 0
-19 20 0
20 0
-8 0
19 0
-16 0
-17 0
-7 0
2 0
6 0
1 0
-14 0
-5 0
-3 0
-9 0
-18 0
-13 0
-4 0
0
